NAME : CMT13
COMMENT : 1541.14
TYPE : CVRP
DIMENSION : 121
EDGE_WEIGHT_TYPE : EUC_2D
CAPACITY : 200
DISTANCE : 720
SERVICE_TIME : 50
NODE_COORD_SECTION
1 10 45
2 25 1
3 25 3
4 31 5
5 32 5
6 31 7
7 32 9
8 34 9
9 46 9
10 35 7
11 34 6
12 35 5
13 47 6
14 40 5
15 39 3
16 36 3
17 73 6
18 73 8
19 24 36
20 76 6
21 76 10
22 76 13
23 78 3
24 78 9
25 79 3
26 79 5
27 79 11
28 82 3
29 82 7
30 90 15
31 84 3
32 84 5
33 84 9
34 85 1
35 87 5
36 85 8
37 87 7
38 86 41
39 86 44
40 86 46
41 85 55
42 89 43
43 89 46
44 89 52
45 92 42
46 92 52
47 94 42
48 94 44
49 94 48
50 96 42
51 99 46
52 99 50
53 83 80
54 83 83
55 85 81
56 85 85
57 85 89
58 87 80
59 87 86
60 90 77
61 90 88
62 93 82
63 93 84
64 93 89
65 94 86
66 95 80
67 99 89
68 37 83
69 50 80
70 35 85
71 35 87
72 44 86
73 46 89
74 46 83
75 46 87
76 46 89
77 48 83
78 50 85
79 50 88
80 54 86
81 54 90
82 10 35
83 10 40
84 18 30
85 17 35
86 16 38
87 14 40
88 15 42
89 11 42
90 18 40
91 21 39
92 20 40
93 18 41
94 20 44
95 22 44
96 16 45
97 20 45
98 25 45
99 30 55
100 20 50
101 22 51
102 18 49
103 16 48
104 20 55
105 18 53
106 14 50
107 15 51
108 16 54
109 28 33
110 33 38
111 30 50
112 13 40
113 15 36
114 18 31
115 25 37
116 30 46
117 25 52
118 16 33
119 25 35
120 5 40
121 5 50
PICKUP_AND_DELIVERY_SECTION
1 0 0 1000000000 0 0 0
2 0 0 1000000000 0 24 1
3 0 0 1000000000 0 6.16 0.84
4 0 0 1000000000 0 10.9032 2.0968
5 0 0 1000000000 0 5.0625 0.9375
6 0 0 1000000000 0 10.8387 3.1613
7 0 0 1000000000 0 3.5938 1.4062
8 0 0 1000000000 0 8.0882 2.9118
9 0 0 1000000000 0 15.2826 3.7174
10 0 0 1000000000 0 4 1
11 0 0 1000000000 0 12.3529 2.6471
12 0 0 1000000000 0 12.8571 2.1429
13 0 0 1000000000 0 14.8298 2.1702
14 0 0 1000000000 0 11.375 1.625
15 0 0 1000000000 0 11.0769 0.9231
16 0 0 1000000000 0 16.5 1.5
17 0 0 1000000000 0 11.9315 1.0685
18 0 0 1000000000 0 16.0274 1.9726
19 0 0 1000000000 0 4 8
20 0 0 1000000000 0 15.6579 1.3421
21 0 0 1000000000 0 3.4737 0.5263
22 0 0 1000000000 0 5.8026 1.1974
23 0 0 1000000000 0 11.5385 0.4615
24 0 0 1000000000 0 11.5 1.5
25 0 0 1000000000 0 7.6962 0.3038
26 0 0 1000000000 0 14.9873 1.0127
27 0 0 1000000000 0 12.9114 2.0886
28 0 0 1000000000 0 5.7805 0.2195
29 0 0 1000000000 0 4.5732 0.4268
30 0 0 1000000000 0 7.5 1.5
31 0 0 1000000000 0 10.6071 0.3929
32 0 0 1000000000 0 9.4048 0.5952
33 0 0 1000000000 0 2.6786 0.3214
34 0 0 1000000000 0 6.9176 0.08235
35 0 0 1000000000 0 1.8851 0.1149
36 0 0 1000000000 0 3.6235 0.3765
37 0 0 1000000000 0 3.6782 0.3218
38 0 0 1000000000 0 9.4186 8.5814
39 0 0 1000000000 0 6.8372 7.1628
40 0 0 1000000000 0 5.5814 6.4186
41 0 0 1000000000 0 6 11
42 0 0 1000000000 0 10.3371 9.6629
43 0 0 1000000000 0 6.764 7.236
44 0 0 1000000000 0 6.6517 9.3483
45 0 0 1000000000 0 5.4348 4.5652
46 0 0 1000000000 0 3.913 5.087
47 0 0 1000000000 0 6.0851 4.9149
48 0 0 1000000000 0 3.7234 3.2766
49 0 0 1000000000 0 6.3617 6.6383
50 0 0 1000000000 0 2.8125 2.1875
51 0 0 1000000000 0 2.1414 1.8586
52 0 0 1000000000 0 10.3939 10.6061
53 0 0 1000000000 0 0.4699 12.5301
54 0 0 1000000000 0 0 11
55 0 0 1000000000 0 0.5647 11.4353
56 0 0 1000000000 0 0 14
57 0 0 1000000000 0 0.4494 9.5506
58 0 0 1000000000 0 0.6437 7.3563
59 0 0 1000000000 0 0.1839 15.8161
60 0 0 1000000000 0 2.7444 16.2556
61 0 0 1000000000 0 0.1111 4.8889
62 0 0 1000000000 0 2.0108 14.9892
63 0 0 1000000000 0 0.6774 6.3226
64 0 0 1000000000 0 0.6882 15.3118
65 0 0 1000000000 0 1.1915 12.8085
66 0 0 1000000000 0 2.6842 14.3158
67 0 0 1000000000 0 1.3131 11.6869
68 0 0 1000000000 0 9.4217 7.5783
69 0 0 1000000000 0 4.875 8.125
70 0 0 1000000000 0 8.2353 5.7647
71 0 0 1000000000 0 9.5632 6.4368
72 0 0 1000000000 0 3.4186 3.5814
73 0 0 1000000000 0 6.2809 6.7191
74 0 0 1000000000 0 4.012 4.988
75 0 0 1000000000 0 5.1839 5.8161
76 0 0 1000000000 0 16.9101 18.0899
77 0 0 1000000000 0 2.1084 2.8916
78 0 0 1000000000 0 11.5294 16.4706
79 0 0 1000000000 0 3.0227 3.9773
80 0 0 1000000000 0 1.1163 1.8837
81 0 0 1000000000 0 4 6
82 0 0 1000000000 0 5 2
83 0 0 1000000000 0 9 3
84 0 0 1000000000 0 4.4 6.6
85 0 0 1000000000 0 5.1429 4.8571
86 0 0 1000000000 0 4.6316 3.3684
87 0 0 1000000000 0 7.15 3.85
88 0 0 1000000000 0 13.5 7.5
89 0 0 1000000000 0 2.9524 1.0476
90 0 0 1000000000 0 8.25 6.75
91 0 0 1000000000 0 7.3846 8.6154
92 0 0 1000000000 0 2 2
93 0 0 1000000000 0 8.9756 7.0244
94 0 0 1000000000 0 3.8182 3.1818
95 0 0 1000000000 0 5 5
96 0 0 1000000000 0 5.8 3.2
97 0 0 1000000000 0 6.1111 4.8889
98 0 0 1000000000 0 7.5556 9.4444
99 0 0 1000000000 0 5.4545 6.5455
100 0 0 1000000000 0 6.6 4.4
101 0 0 1000000000 0 3.9804 3.0196
102 0 0 1000000000 0 5.6939 3.3061
103 0 0 1000000000 0 7.3333 3.6667
104 0 0 1000000000 0 7.6364 4.3636
105 0 0 1000000000 0 4.6226 2.3774
106 0 0 1000000000 0 5.76 2.24
107 0 0 1000000000 0 4.2353 1.7647
108 0 0 1000000000 0 3.5185 1.4815
109 0 0 1000000000 0 1.8182 10.1818
110 0 0 1000000000 0 1.7105 11.2895
111 0 0 1000000000 0 2.8 4.2
112 0 0 1000000000 0 4.725 2.275
113 0 0 1000000000 0 4.6667 3.3333
114 0 0 1000000000 0 4.6129 6.3871
115 0 0 1000000000 0 4.2162 8.7838
116 0 0 1000000000 0 3.8261 7.1739
117 0 0 1000000000 0 5.1923 4.8077
118 0 0 1000000000 0 3.6061 3.3939
119 0 0 1000000000 0 1.1429 2.8571
120 0 0 1000000000 0 17.5 2.5
121 0 0 1000000000 0 11.7 1.3
